benchmarks_CP/INST_49x49/40/inst49x49_40_60.dzn
S=7;
start=[|
-1,	28,	23,	-1,	26,	19,	-1,	-1,	-1,	-1,	32,	-1,	-1,	-1,	36,	35,	22,	-1,	39,	48,	-1,	-1,	-1,	-1,	-1,	-1,	-1,	10,	-1,	-1,	-1,	24,	-1,	16,	-1,	-1,	-1,	-1,	-1,	-1,	-1,	-1,	-1,	34,	3,	31,	-1,	18,	-1|
-1,	-1,	-1,	-1,	-1,	1,	-1,	23,	47,	-1,	-1,	-1,	30,	24,	21,	20,	9,	4,	-1,	-1,	-1,	-1,	-1,	27,	43,	-1,	14,	-1,	39,	-1,	-1,	-1,	-1,	31,	44,	-1,	-1,	-1,	5,	22,	-1,	-1,	40,	-1,	-1,	-1,	-1,	-1,	-1|
-1,	8,	9,	20,	40,	-1,	-1,	-1,	13,	22,	-1,	-1,	31,	-1,	15,	32,	23,	-1,	-1,	-1,	-1,	30,	34,	-1,	-1,	39,	-1,	-1,	-1,	-1,	-1,	6,	42,	19,	-1,	-1,	-1,	-1,	38,	-1,	-1,	-1,	-1,	-1,	1,	12,	-1,	29,	26|
-1,	-1,	-1,	-1,	4,	-1,	-1,	-1,	41,	40,	8,	-1,	11,	19,	-1,	-1,	33,	-1,	16,	7,	27,	-1,	-1,	-1,	-1,	-1,	49,	38,	-1,	-1,	28,	23,	-1,	-1,	-1,	-1,	3,	-1,	-1,	-1,	15,	30,	-1,	-1,	25,	-1,	-1,	24,	-1|
6,	15,	-1,	-1,	-1,	11,	14,	26,	-1,	-1,	-1,	-1,	-1,	-1,	-1,	-1,	46,	49,	-1,	-1,	-1,	4,	23,	-1,	-1,	24,	-1,	-1,	13,	18,	22,	-1,	-1,	12,	-1,	-1,	-1,	-1,	-1,	20,	-1,	-1,	7,	-1,	-1,	35,	42,	36,	43|
-1,	31,	36,	-1,	-1,	49,	-1,	-1,	-1,	42,	-1,	9,	37,	6,	-1,	47,	-1,	24,	-1,	-1,	-1,	15,	-1,	-1,	41,	-1,	-1,	-1,	-1,	26,	11,	-1,	14,	-1,	-1,	32,	-1,	-1,	12,	-1,	27,	1,	-1,	-1,	38,	23,	-1,	44,	-1|
47,	-1,	-1,	41,	33,	-1,	24,	-1,	4,	-1,	25,	5,	36,	-1,	-1,	-1,	17,	10,	-1,	26,	-1,	-1,	44,	-1,	-1,	-1,	-1,	-1,	-1,	9,	-1,	-1,	-1,	49,	8,	35,	13,	-1,	-1,	-1,	-1,	-1,	45,	28,	-1,	15,	-1,	19,	-1|
-1,	-1,	40,	-1,	-1,	33,	-1,	-1,	-1,	-1,	-1,	-1,	-1,	29,	-1,	15,	-1,	-1,	21,	27,	7,	6,	-1,	-1,	-1,	38,	-1,	-1,	-1,	-1,	-1,	19,	-1,	-1,	-1,	-1,	-1,	-1,	-1,	2,	-1,	45,	-1,	-1,	-1,	-1,	22,	3,	-1|
13,	35,	-1,	-1,	-1,	31,	4,	-1,	-1,	16,	-1,	-1,	17,	15,	-1,	12,	44,	-1,	-1,	2,	-1,	-1,	-1,	-1,	-1,	10,	-1,	26,	-1,	14,	-1,	29,	-1,	18,	38,	1,	46,	-1,	8,	-1,	23,	-1,	6,	-1,	-1,	-1,	-1,	5,	21|
-1,	-1,	8,	-1,	23,	-1,	12,	-1,	-1,	25,	11,	-1,	-1,	48,	-1,	18,	10,	-1,	-1,	-1,	-1,	27,	49,	-1,	-1,	45,	35,	-1,	-1,	-1,	-1,	-1,	-1,	-1,	-1,	17,	-1,	-1,	22,	5,	-1,	-1,	-1,	26,	-1,	28,	-1,	-1,	4|
7,	-1,	-1,	-1,	-1,	-1,	-1,	-1,	9,	-1,	24,	-1,	-1,	-1,	25,	-1,	41,	-1,	-1,	20,	17,	23,	46,	-1,	34,	-1,	-1,	32,	-1,	-1,	-1,	-1,	-1,	43,	-1,	-1,	12,	-1,	-1,	-1,	-1,	36,	38,	44,	-1,	13,	1,	-1,	8|
-1,	-1,	42,	19,	-1,	-1,	26,	2,	-1,	27,	-1,	-1,	-1,	-1,	8,	-1,	-1,	-1,	28,	-1,	-1,	-1,	-1,	15,	5,	-1,	-1,	41,	23,	22,	-1,	-1,	17,	25,	-1,	-1,	-1,	-1,	-1,	-1,	-1,	-1,	34,	18,	48,	-1,	-1,	11,	-1|
-1,	24,	-1,	-1,	20,	-1,	-1,	-1,	21,	-1,	-1,	19,	-1,	-1,	32,	23,	-1,	-1,	-1,	-1,	-1,	8,	42,	-1,	-1,	48,	22,	9,	-1,	-1,	-1,	28,	-1,	35,	36,	26,	41,	-1,	11,	-1,	-1,	-1,	31,	45,	-1,	-1,	40,	-1,	-1|
-1,	-1,	-1,	-1,	-1,	-1,	-1,	-1,	26,	5,	43,	-1,	20,	-1,	-1,	-1,	14,	-1,	-1,	42,	-1,	-1,	4,	2,	-1,	-1,	-1,	37,	-1,	8,	21,	-1,	9,	34,	-1,	-1,	25,	-1,	-1,	27,	-1,	-1,	-1,	-1,	-1,	-1,	-1,	-1,	-1|
-1,	-1,	-1,	-1,	-1,	-1,	21,	-1,	-1,	-1,	23,	28,	-1,	-1,	-1,	39,	49,	-1,	-1,	-1,	-1,	-1,	-1,	-1,	-1,	2,	47,	24,	-1,	-1,	12,	-1,	-1,	-1,	22,	31,	36,	-1,	-1,	-1,	-1,	-1,	-1,	-1,	-1,	-1,	-1,	-1,	5|
-1,	-1,	-1,	42,	-1,	-1,	49,	40,	-1,	10,	-1,	-1,	-1,	-1,	-1,	-1,	-1,	23,	36,	1,	-1,	-1,	-1,	-1,	-1,	-1,	13,	-1,	21,	-1,	16,	-1,	-1,	-1,	-1,	5,	-1,	8,	44,	-1,	-1,	47,	-1,	-1,	-1,	-1,	-1,	38,	-1|
-1,	47,	43,	-1,	16,	-1,	-1,	31,	44,	48,	17,	-1,	29,	11,	34,	38,	32,	30,	-1,	-1,	-1,	9,	-1,	-1,	10,	-1,	-1,	-1,	49,	-1,	-1,	-1,	-1,	-1,	3,	-1,	-1,	15,	25,	-1,	18,	12,	-1,	-1,	-1,	-1,	2,	42,	-1|
-1,	20,	-1,	-1,	6,	-1,	-1,	-1,	14,	1,	2,	25,	-1,	-1,	-1,	-1,	-1,	-1,	-1,	11,	-1,	-1,	19,	-1,	-1,	-1,	15,	22,	-1,	-1,	40,	-1,	-1,	-1,	-1,	7,	-1,	-1,	-1,	-1,	-1,	-1,	23,	48,	-1,	29,	18,	-1,	44|
12,	27,	-1,	23,	17,	25,	37,	-1,	32,	15,	33,	-1,	5,	-1,	7,	-1,	45,	-1,	48,	-1,	2,	-1,	-1,	-1,	-1,	8,	38,	-1,	34,	-1,	-1,	18,	-1,	-1,	-1,	9,	-1,	-1,	-1,	28,	-1,	-1,	19,	-1,	-1,	21,	11,	-1,	-1|
31,	-1,	-1,	29,	14,	9,	-1,	12,	-1,	-1,	-1,	-1,	-1,	-1,	17,	6,	18,	44,	-1,	-1,	-1,	-1,	-1,	41,	-1,	-1,	-1,	-1,	10,	-1,	-1,	47,	-1,	48,	-1,	23,	-1,	-1,	-1,	39,	38,	-1,	-1,	36,	-1,	-1,	3,	-1,	40|
-1,	-1,	-1,	28,	-1,	36,	-1,	-1,	42,	18,	-1,	27,	-1,	-1,	16,	-1,	40,	35,	25,	-1,	12,	-1,	-1,	-1,	-1,	-1,	-1,	6,	5,	-1,	-1,	-1,	-1,	-1,	39,	-1,	-1,	-1,	19,	21,	-1,	-1,	49,	-1,	43,	-1,	-1,	-1,	7|
35,	23,	-1,	-1,	25,	-1,	-1,	27,	49,	11,	-1,	-1,	-1,	-1,	-1,	-1,	-1,	-1,	18,	-1,	-1,	10,	6,	-1,	19,	-1,	42,	-1,	15,	12,	-1,	-1,	13,	-1,	-1,	-1,	17,	29,	-1,	-1,	37,	-1,	-1,	-1,	-1,	-1,	44,	48,	22|
18,	-1,	-1,	-1,	37,	-1,	27,	-1,	28,	31,	15,	22,	6,	26,	49,	40,	16,	39,	-1,	-1,	24,	5,	-1,	45,	9,	-1,	-1,	-1,	-1,	-1,	14,	-1,	-1,	-1,	46,	-1,	-1,	35,	-1,	13,	34,	10,	11,	-1,	-1,	-1,	43,	-1,	-1|
24,	46,	11,	6,	-1,	-1,	-1,	18,	-1,	13,	-1,	1,	-1,	-1,	-1,	-1,	31,	45,	-1,	-1,	-1,	-1,	-1,	20,	12,	37,	29,	-1,	16,	30,	26,	-1,	27,	-1,	40,	-1,	-1,	-1,	36,	-1,	-1,	9,	15,	8,	14,	19,	-1,	-1,	34|
-1,	22,	-1,	8,	19,	40,	28,	17,	-1,	21,	-1,	-1,	-1,	34,	-1,	36,	48,	-1,	30,	-1,	-1,	-1,	-1,	-1,	-1,	43,	-1,	4,	-1,	20,	49,	7,	-1,	-1,	-1,	41,	-1,	-1,	-1,	38,	2,	-1,	46,	-1,	-1,	-1,	-1,	-1,	45|
-1,	-1,	-1,	-1,	-1,	-1,	45,	48,	-1,	2,	-1,	8,	-1,	-1,	46,	-1,	38,	-1,	22,	17,	1,	13,	-1,	32,	-1,	33,	41,	-1,	31,	5,	-1,	-1,	-1,	-1,	-1,	14,	-1,	44,	40,	-1,	-1,	43,	42,	3,	-1,	-1,	20,	21,	-1|
-1,	7,	-1,	16,	-1,	-1,	-1,	-1,	46,	29,	44,	40,	32,	-1,	19,	-1,	-1,	-1,	9,	-1,	14,	-1,	-1,	34,	2,	28,	-1,	-1,	38,	-1,	-1,	-1,	45,	-1,	-1,	-1,	8,	27,	-1,	47,	-1,	6,	13,	-1,	10,	49,	-1,	26,	-1|
-1,	-1,	-1,	-1,	41,	-1,	38,	37,	-1,	14,	3,	10,	39,	-1,	-1,	-1,	6,	-1,	2,	4,	34,	-1,	40,	-1,	-1,	46,	-1,	-1,	29,	-1,	36,	-1,	-1,	-1,	23,	11,	15,	-1,	-1,	-1,	-1,	49,	-1,	17,	-1,	-1,	33,	12,	25|
-1,	-1,	-1,	-1,	47,	-1,	48,	-1,	-1,	-1,	-1,	-1,	-1,	-1,	-1,	-1,	13,	-1,	-1,	-1,	33,	-1,	-1,	-1,	29,	36,	6,	28,	14,	-1,	-1,	-1,	49,	-1,	12,	-1,	-1,	40,	-1,	-1,	-1,	-1,	18,	-1,	-1,	10,	-1,	43,	39|
-1,	26,	2,	-1,	-1,	6,	-1,	29,	-1,	8,	14,	36,	25,	-1,	-1,	-1,	-1,	17,	-1,	-1,	-1,	24,	30,	49,	-1,	-1,	27,	-1,	-1,	-1,	-1,	-1,	-1,	32,	-1,	-1,	-1,	-1,	13,	9,	39,	48,	21,	42,	-1,	-1,	-1,	45,	-1|
-1,	45,	-1,	5,	1,	23,	-1,	33,	30,	-1,	-1,	6,	10,	32,	-1,	-1,	-1,	-1,	-1,	16,	-1,	-1,	48,	17,	-1,	-1,	39,	-1,	-1,	-1,	-1,	8,	31,	-1,	-1,	43,	-1,	-1,	47,	34,	-1,	-1,	36,	-1,	2,	44,	-1,	15,	-1|
-1,	-1,	-1,	-1,	15,	-1,	9,	-1,	-1,	-1,	-1,	-1,	-1,	27,	26,	-1,	-1,	-1,	-1,	-1,	-1,	-1,	12,	37,	-1,	-1,	-1,	18,	45,	39,	-1,	-1,	-1,	1,	-1,	22,	-1,	31,	-1,	-1,	-1,	-1,	3,	-1,	-1,	-1,	-1,	-1,	-1|
49,	36,	-1,	-1,	34,	-1,	-1,	-1,	5,	-1,	-1,	13,	-1,	2,	-1,	10,	19,	28,	14,	-1,	-1,	-1,	-1,	8,	35,	25,	-1,	-1,	37,	44,	42,	11,	-1,	-1,	27,	12,	-1,	-1,	-1,	6,	-1,	18,	-1,	-1,	4,	-1,	16,	-1,	29|
46,	39,	-1,	44,	-1,	38,	-1,	-1,	-1,	43,	21,	-1,	-1,	-1,	48,	-1,	1,	-1,	-1,	8,	49,	42,	-1,	-1,	33,	-1,	-1,	-1,	-1,	-1,	-1,	-1,	-1,	-1,	-1,	-1,	-1,	-1,	-1,	-1,	-1,	-1,	-1,	32,	-1,	-1,	25,	-1,	-1|
42,	-1,	-1,	-1,	-1,	-1,	18,	38,	39,	-1,	-1,	-1,	46,	-1,	-1,	-1,	43,	31,	-1,	-1,	-1,	-1,	-1,	-1,	-1,	-1,	40,	-1,	-1,	25,	-1,	-1,	48,	33,	-1,	24,	1,	21,	2,	11,	5,	16,	-1,	-1,	20,	14,	-1,	-1,	-1|
37,	-1,	-1,	-1,	-1,	-1,	1,	-1,	48,	-1,	-1,	-1,	-1,	-1,	12,	-1,	-1,	25,	33,	38,	35,	45,	22,	46,	-1,	-1,	-1,	-1,	-1,	-1,	9,	-1,	-1,	-1,	16,	8,	32,	13,	-1,	-1,	-1,	15,	-1,	-1,	-1,	-1,	-1,	-1,	-1|
45,	9,	27,	-1,	-1,	-1,	-1,	-1,	18,	-1,	6,	44,	-1,	-1,	-1,	-1,	-1,	16,	-1,	19,	-1,	28,	-1,	26,	39,	-1,	-1,	-1,	3,	23,	32,	-1,	-1,	-1,	34,	-1,	38,	-1,	43,	-1,	-1,	-1,	-1,	-1,	-1,	-1,	8,	-1,	-1|
22,	-1,	-1,	-1,	-1,	30,	34,	19,	-1,	23,	-1,	35,	-1,	-1,	-1,	-1,	-1,	-1,	-1,	44,	-1,	-1,	-1,	43,	-1,	-1,	-1,	29,	28,	7,	31,	-1,	-1,	-1,	11,	42,	-1,	16,	24,	25,	20,	4,	41,	2,	21,	-1,	-1,	27,	-1|
20,	-1,	6,	-1,	-1,	-1,	-1,	21,	15,	32,	39,	30,	-1,	-1,	-1,	-1,	-1,	-1,	43,	34,	-1,	41,	-1,	36,	48,	42,	-1,	33,	19,	-1,	37,	-1,	-1,	-1,	-1,	10,	-1,	22,	-1,	12,	9,	-1,	-1,	24,	-1,	-1,	-1,	-1,	-1|
19,	-1,	29,	33,	-1,	-1,	-1,	8,	-1,	-1,	38,	41,	-1,	47,	-1,	-1,	-1,	-1,	31,	-1,	22,	-1,	-1,	-1,	-1,	-1,	30,	16,	1,	24,	-1,	5,	-1,	-1,	45,	39,	-1,	36,	6,	-1,	17,	3,	20,	-1,	-1,	-1,	9,	37,	10|
-1,	13,	16,	-1,	-1,	17,	-1,	34,	-1,	28,	36,	2,	14,	43,	24,	-1,	11,	-1,	40,	45,	-1,	-1,	31,	-1,	23,	44,	9,	15,	-1,	-1,	38,	30,	-1,	-1,	41,	-1,	5,	19,	27,	-1,	-1,	37,	-1,	12,	35,	-1,	-1,	-1,	48|
-1,	18,	-1,	40,	-1,	4,	-1,	-1,	-1,	-1,	-1,	26,	-1,	16,	29,	13,	15,	-1,	-1,	39,	-1,	-1,	-1,	-1,	-1,	19,	-1,	3,	-1,	-1,	-1,	-1,	21,	42,	48,	49,	7,	-1,	45,	-1,	1,	11,	44,	-1,	46,	36,	31,	28,	-1|
14,	-1,	-1,	-1,	-1,	20,	-1,	-1,	8,	36,	-1,	-1,	-1,	33,	3,	44,	-1,	-1,	-1,	-1,	-1,	-1,	16,	-1,	-1,	-1,	-1,	-1,	9,	-1,	43,	-1,	-1,	26,	28,	-1,	-1,	-1,	-1,	24,	-1,	-1,	-1,	-1,	17,	45,	-1,	2,	18|
-1,	-1,	-1,	-1,	28,	-1,	29,	49,	-1,	-1,	31,	-1,	-1,	4,	30,	41,	-1,	-1,	-1,	-1,	-1,	-1,	45,	-1,	-1,	-1,	2,	1,	40,	48,	-1,	-1,	6,	-1,	-1,	-1,	-1,	38,	7,	35,	13,	-1,	-1,	47,	-1,	-1,	-1,	46,	37|
-1,	-1,	5,	-1,	-1,	-1,	-1,	-1,	-1,	39,	-1,	-1,	-1,	9,	-1,	-1,	-1,	-1,	35,	-1,	-1,	-1,	10,	-1,	-1,	-1,	26,	14,	33,	-1,	-1,	-1,	-1,	41,	-1,	-1,	-1,	28,	-1,	-1,	-1,	34,	29,	-1,	36,	-1,	19,	-1,	-1|
-1,	37,	33,	18,	-1,	-1,	-1,	-1,	2,	-1,	-1,	11,	-1,	-1,	-1,	-1,	-1,	-1,	32,	-1,	-1,	20,	-1,	-1,	-1,	17,	-1,	-1,	-1,	29,	35,	-1,	-1,	-1,	19,	45,	-1,	4,	46,	-1,	36,	-1,	8,	-1,	-1,	-1,	-1,	-1,	-1|
-1,	-1,	-1,	-1,	39,	-1,	-1,	24,	38,	-1,	-1,	-1,	-1,	-1,	-1,	-1,	21,	7,	-1,	28,	23,	-1,	-1,	47,	-1,	-1,	-1,	46,	-1,	3,	-1,	-1,	-1,	36,	-1,	40,	42,	-1,	9,	-1,	-1,	44,	-1,	27,	-1,	-1,	-1,	31,	20|
-1,	1,	49,	-1,	-1,	-1,	32,	-1,	-1,	30,	18,	-1,	-1,	-1,	5,	-1,	29,	-1,	47,	36,	-1,	-1,	24,	19,	7,	-1,	28,	-1,	-1,	-1,	39,	12,	-1,	-1,	-1,	-1,	-1,	-1,	-1,	8,	-1,	-1,	-1,	33,	-1,	-1,	-1,	-1,	15|
-1,	34,	-1,	-1,	-1,	-1,	-1,	-1,	-1,	-1,	27,	-1,	-1,	-1,	38,	-1,	-1,	9,	6,	-1,	-1,	-1,	-1,	-1,	3,	31,	8,	-1,	-1,	-1,	-1,	16,	46,	4,	24,	30,	-1,	20,	37,	33,	-1,	-1,	28,	-1,	-1,	7,	-1,	1,	23|];
