benchmarks_LEQ/INST_49x49/40/inst49x49_40_60.txt
7
1
27	28	-1	-1	26	-1	44	43	45	12	-1	-1	-1	-1	-1	35	22	-1	-1	48	-1	-1	8	-1	-1	6	20	10	41	1	-1	24	-1	-1	-1	29	-1	-1	-1	42	-1	-1	-1	-1	-1	-1	49	-1	47
-1	-1	37	-1	12	1	3	-1	47	-1	-1	49	-1	-1	-1	20	-1	-1	13	-1	-1	11	-1	27	43	35	14	-1	39	-1	46	-1	15	-1	-1	-1	-1	-1	-1	22	28	2	40	-1	-1	48	-1	-1	41
-1	-1	-1	-1	-1	-1	-1	44	-1	22	-1	-1	-1	18	-1	-1	23	-1	-1	41	11	-1	-1	3	25	39	45	47	27	-1	2	-1	42	19	4	-1	49	43	-1	36	24	46	10	-1	-1	-1	14	-1	-1
-1	17	-1	13	-1	-1	42	1	41	40	-1	-1	-1	19	-1	-1	33	-1	16	-1	27	-1	-1	9	36	-1	-1	38	-1	-1	-1	23	-1	-1	-1	44	3	-1	-1	-1	15	30	37	-1	25	-1	-1	-1	2
-1	-1	-1	-1	29	-1	-1	-1	-1	-1	-1	-1	-1	-1	-1	-1	46	-1	34	3	28	4	-1	-1	-1	24	31	17	13	-1	22	-1	-1	-1	5	47	37	45	21	-1	-1	-1	7	-1	9	35	42	36	43
-1	-1	-1	-1	-1	-1	2	3	35	-1	48	-1	-1	-1	45	47	30	24	8	-1	-1	15	28	-1	-1	-1	-1	-1	20	-1	11	21	14	17	-1	-1	-1	-1	-1	-1	27	1	-1	-1	38	-1	46	-1	13
-1	-1	-1	-1	-1	-1	24	-1	4	-1	-1	-1	-1	-1	-1	-1	-1	10	-1	-1	-1	37	-1	-1	-1	-1	21	-1	48	-1	30	-1	-1	-1	-1	35	-1	6	-1	23	-1	7	45	28	32	-1	-1	19	-1
17	5	-1	-1	-1	33	-1	-1	23	-1	-1	-1	8	-1	-1	-1	-1	34	21	-1	7	6	-1	-1	-1	38	44	-1	12	4	-1	-1	-1	37	-1	-1	-1	-1	-1	2	-1	-1	-1	-1	42	-1	-1	-1	-1
-1	35	34	-1	-1	-1	-1	-1	-1	16	42	-1	-1	-1	-1	12	-1	-1	-1	-1	-1	3	47	-1	-1	-1	25	-1	30	14	41	-1	-1	18	-1	-1	46	-1	-1	43	23	19	-1	-1	-1	20	-1	5	-1
-1	-1	-1	-1	-1	-1	12	-1	-1	-1	11	-1	47	-1	39	18	-1	-1	19	-1	-1	27	-1	-1	20	-1	-1	21	24	-1	-1	42	-1	40	-1	17	34	-1	-1	-1	-1	-1	-1	26	41	-1	36	-1	-1
-1	6	-1	-1	45	-1	-1	4	-1	35	24	31	-1	37	-1	33	-1	29	-1	-1	17	23	-1	-1	34	-1	-1	-1	-1	11	48	3	-1	-1	-1	-1	-1	14	-1	-1	-1	36	-1	-1	-1	-1	-1	-1	-1
10	-1	-1	19	-1	-1	-1	-1	-1	-1	1	-1	12	-1	8	-1	-1	38	-1	-1	-1	-1	14	-1	-1	-1	-1	-1	23	22	20	45	-1	-1	49	-1	47	7	-1	-1	-1	24	34	18	-1	-1	-1	11	-1
2	24	-1	14	20	18	-1	-1	21	38	-1	-1	-1	44	-1	23	-1	1	-1	-1	-1	8	42	33	17	-1	-1	-1	46	-1	-1	28	-1	-1	-1	-1	-1	37	-1	-1	-1	-1	-1	-1	-1	-1	-1	-1	12
-1	41	-1	-1	46	-1	-1	-1	-1	-1	-1	3	20	-1	-1	49	-1	22	45	42	-1	-1	4	2	18	-1	7	-1	-1	-1	21	-1	9	-1	-1	-1	-1	32	31	-1	-1	-1	-1	-1	19	24	23	17	33
-1	-1	-1	38	-1	-1	-1	-1	19	3	23	28	-1	8	-1	-1	-1	14	-1	-1	-1	-1	-1	-1	40	-1	47	-1	-1	-1	12	-1	25	-1	22	-1	36	-1	-1	1	-1	33	-1	-1	-1	-1	45	-1	5
-1	-1	-1	-1	18	-1	-1	40	7	10	-1	-1	35	22	33	43	-1	-1	-1	1	-1	-1	-1	-1	-1	11	13	12	-1	-1	-1	-1	-1	-1	-1	-1	-1	-1	-1	-1	-1	-1	24	-1	-1	41	-1	38	-1
-1	47	-1	-1	-1	-1	-1	-1	-1	48	-1	21	29	-1	-1	38	32	30	-1	-1	-1	-1	36	-1	-1	-1	-1	35	-1	6	-1	-1	4	-1	-1	-1	24	-1	25	45	-1	-1	1	-1	-1	-1	-1	-1	-1
-1	20	-1	24	6	3	13	9	-1	-1	2	-1	34	-1	-1	-1	47	-1	26	-1	-1	-1	-1	-1	45	-1	-1	-1	35	38	-1	36	-1	27	42	-1	43	41	-1	-1	16	-1	23	48	12	29	18	-1	-1
-1	27	1	23	-1	-1	37	-1	-1	-1	-1	-1	-1	-1	7	-1	-1	3	48	-1	-1	-1	-1	42	-1	8	-1	30	34	-1	44	-1	-1	-1	14	9	6	-1	4	28	49	-1	19	10	22	-1	11	-1	-1
31	2	-1	29	-1	-1	-1	12	-1	26	46	16	-1	-1	-1	-1	-1	-1	42	-1	21	7	-1	-1	28	49	-1	-1	-1	-1	19	-1	43	-1	-1	-1	20	11	34	-1	-1	-1	-1	36	15	8	-1	-1	-1
-1	-1	10	28	-1	36	46	-1	42	-1	-1	-1	-1	20	16	-1	-1	-1	-1	15	12	32	-1	23	44	1	-1	6	5	-1	24	31	-1	11	39	37	-1	-1	-1	-1	29	-1	49	14	-1	-1	-1	-1	-1
35	-1	-1	-1	-1	14	-1	-1	-1	-1	-1	4	-1	-1	-1	-1	5	-1	18	47	-1	10	-1	24	-1	-1	42	-1	-1	-1	34	39	13	-1	43	-1	-1	29	32	7	-1	-1	-1	-1	-1	-1	-1	48	-1
18	48	20	2	-1	44	-1	42	-1	31	-1	22	6	-1	-1	40	-1	-1	-1	12	24	5	7	45	-1	-1	-1	25	32	17	-1	-1	-1	8	-1	19	33	-1	-1	-1	34	10	-1	23	-1	-1	-1	-1	38
-1	46	-1	-1	-1	-1	-1	18	-1	-1	-1	-1	41	23	-1	-1	-1	-1	3	35	-1	-1	38	-1	12	37	-1	49	16	-1	26	2	-1	-1	-1	-1	4	5	-1	48	21	9	-1	8	-1	19	-1	-1	34
-1	22	-1	8	19	-1	28	17	-1	-1	35	-1	-1	34	-1	-1	48	15	-1	-1	-1	14	18	44	-1	43	-1	-1	42	20	-1	7	11	6	-1	41	31	-1	-1	38	2	-1	46	-1	5	-1	37	-1	-1
29	-1	-1	-1	-1	-1	45	48	36	2	-1	-1	-1	7	46	26	-1	-1	22	17	-1	13	-1	-1	-1	-1	41	23	31	5	-1	-1	37	-1	18	14	-1	44	-1	-1	-1	-1	42	3	28	-1	-1	21	35
-1	-1	30	16	5	12	-1	20	-1	29	-1	-1	32	-1	-1	11	-1	-1	-1	-1	14	1	-1	34	2	-1	48	39	38	41	-1	-1	-1	-1	-1	-1	-1	-1	42	-1	22	6	13	-1	-1	-1	24	26	36
1	-1	-1	31	41	-1	38	-1	-1	-1	3	-1	39	5	20	-1	-1	-1	-1	-1	-1	47	40	-1	-1	-1	-1	8	29	19	36	-1	-1	28	23	11	-1	24	-1	26	-1	-1	-1	-1	-1	27	33	-1	-1
25	-1	-1	-1	-1	-1	-1	11	-1	17	19	-1	-1	1	-1	-1	13	-1	44	9	-1	-1	-1	22	-1	36	-1	-1	-1	35	-1	-1	-1	-1	-1	-1	45	-1	15	-1	-1	-1	-1	-1	31	-1	-1	43	-1
-1	26	-1	-1	3	-1	-1	29	-1	-1	-1	36	25	-1	4	-1	20	17	46	-1	18	-1	-1	-1	16	-1	27	7	-1	34	-1	-1	-1	-1	-1	38	-1	23	13	-1	39	-1	21	-1	-1	37	-1	45	1
-1	45	-1	-1	1	23	-1	33	30	-1	22	6	10	-1	27	42	12	37	-1	-1	25	38	48	-1	46	-1	-1	-1	-1	21	-1	-1	-1	-1	-1	43	29	49	47	34	-1	14	-1	35	2	44	-1	15	-1
43	29	35	10	-1	24	-1	16	-1	-1	-1	-1	-1	27	26	-1	2	-1	-1	6	-1	-1	-1	-1	21	-1	11	-1	-1	39	-1	-1	-1	-1	-1	-1	-1	31	-1	32	-1	25	-1	19	-1	5	41	-1	-1
-1	36	-1	17	34	7	-1	-1	-1	-1	40	13	-1	-1	-1	-1	-1	28	14	21	-1	-1	-1	-1	-1	-1	1	45	-1	-1	-1	-1	-1	15	27	12	-1	-1	20	-1	46	-1	48	-1	4	-1	-1	-1	-1
-1	-1	14	-1	13	38	-1	15	-1	43	21	-1	24	12	-1	45	1	-1	23	-1	-1	-1	9	-1	-1	-1	-1	-1	2	28	29	40	16	7	-1	-1	-1	-1	-1	19	10	-1	-1	-1	-1	-1	25	-1	-1
-1	-1	-1	-1	-1	-1	-1	38	39	44	7	-1	-1	-1	35	34	43	-1	15	29	-1	19	26	-1	-1	-1	-1	-1	36	-1	6	41	-1	33	-1	-1	-1	-1	-1	11	-1	16	-1	-1	-1	-1	-1	-1	-1
37	-1	-1	26	-1	47	-1	-1	-1	24	-1	29	-1	-1	12	-1	-1	-1	-1	38	35	-1	-1	-1	-1	-1	-1	34	-1	-1	9	-1	-1	39	-1	-1	-1	-1	28	-1	-1	-1	43	4	-1	11	6	-1	19
45	9	-1	35	36	5	-1	-1	18	-1	-1	-1	40	-1	-1	-1	-1	-1	-1	-1	-1	28	-1	26	-1	4	24	11	3	23	-1	-1	-1	-1	-1	-1	-1	48	-1	41	-1	21	-1	-1	-1	-1	8	-1	-1
-1	-1	-1	-1	-1	-1	-1	-1	-1	23	-1	35	-1	45	-1	3	-1	-1	-1	-1	9	-1	13	-1	37	47	5	29	28	7	31	-1	8	46	-1	-1	-1	-1	-1	25	-1	-1	41	-1	21	1	-1	27	-1
-1	-1	6	-1	-1	-1	11	21	-1	-1	-1	-1	-1	31	-1	-1	-1	-1	43	-1	-1	41	-1	-1	48	-1	-1	-1	-1	2	-1	44	29	-1	-1	-1	-1	22	23	-1	-1	-1	-1	24	-1	-1	-1	-1	-1
-1	-1	-1	33	-1	28	43	-1	-1	-1	-1	-1	-1	47	-1	48	-1	26	31	-1	-1	-1	-1	-1	-1	-1	30	-1	1	-1	-1	5	-1	-1	-1	-1	-1	-1	-1	46	17	-1	20	-1	-1	-1	-1	37	-1
-1	13	-1	3	42	-1	8	-1	-1	-1	-1	2	14	-1	-1	-1	-1	-1	40	-1	-1	-1	-1	6	23	-1	-1	-1	4	49	-1	30	22	10	-1	33	-1	-1	-1	-1	-1	37	-1	-1	-1	-1	-1	-1	-1
23	-1	-1	-1	-1	4	10	25	12	-1	9	26	22	16	-1	-1	15	-1	17	-1	47	35	-1	38	8	19	-1	3	-1	43	33	-1	21	-1	-1	-1	7	34	45	-1	-1	-1	-1	-1	46	36	-1	28	-1
14	40	-1	46	-1	-1	-1	-1	8	-1	-1	48	21	33	-1	-1	-1	11	-1	-1	-1	-1	-1	13	-1	-1	-1	42	-1	-1	-1	-1	34	-1	-1	-1	10	-1	-1	-1	19	-1	-1	-1	-1	45	-1	2	18
-1	12	-1	-1	-1	-1	29	-1	-1	34	31	-1	-1	-1	-1	41	24	19	20	-1	-1	-1	-1	-1	-1	9	-1	-1	-1	-1	23	-1	-1	-1	21	-1	-1	-1	7	-1	13	-1	-1	-1	-1	-1	26	46	37
-1	-1	5	-1	-1	-1	23	-1	-1	39	-1	-1	1	9	-1	16	8	18	35	-1	-1	-1	-1	25	-1	27	26	-1	-1	31	7	-1	-1	41	-1	6	-1	28	-1	17	-1	-1	29	-1	-1	-1	19	22	-1
41	37	-1	18	-1	16	-1	7	2	6	-1	11	-1	-1	43	27	-1	-1	-1	-1	13	-1	5	39	38	17	12	44	-1	29	-1	15	-1	30	19	45	-1	4	-1	-1	-1	22	-1	-1	24	3	21	-1	-1
-1	-1	-1	-1	-1	-1	35	24	-1	-1	-1	15	16	14	-1	22	-1	7	-1	28	-1	33	41	47	-1	-1	37	-1	-1	3	-1	17	-1	-1	-1	-1	-1	1	9	-1	-1	44	-1	-1	-1	-1	-1	-1	-1
-1	1	49	-1	-1	-1	-1	-1	-1	-1	18	-1	23	-1	5	4	29	-1	47	-1	-1	-1	-1	19	7	-1	-1	48	-1	-1	39	-1	38	-1	2	25	-1	26	41	-1	-1	31	-1	-1	6	40	-1	-1	15
-1	34	-1	47	-1	2	19	-1	29	45	-1	-1	-1	41	-1	-1	-1	-1	-1	49	-1	-1	-1	-1	-1	31	-1	-1	-1	-1	18	16	46	-1	-1	-1	-1	20	-1	33	-1	-1	28	-1	-1	-1	10	-1	23
49 
41 9 26 21
22 46 28 19
33 38 21 23
31 31 6 40
6 1 7 12
26 46 12 21
29 44 43 3
31 32 33 24
7 30 31 10
17 25 36 27
13 39 18 20
49 41 30 4
11 46 32 32
45 28 17 24
27 23 1 13
43 23 29 2
35 49 36 29
8 38 21 10
40 1 1 6
48 12 38 41
21 40 41 16
49 8 21 37
22 2 29 12
42 3 26 34
5 4 10 10
31 35 25 3
24 33 37 3
24 36 35 14
24 27 42 15
10 38 34 35
9 6 4 40
31 14 20 30
45 29 1 41
47 46 39 20
14 41 49 23
38 17 1 15
43 21 28 8
29 34 1 12
33 21 49 17
9 18 26 39
42 18 29 15
11 41 7 25
26 42 49 28
9 17 36 41
44 23 47 31
18 18 34 1
25 46 32 45
16 37 46 18
13 48 30 24
